c WARNING: for repeatability, setting FPU to use double precision
d VARIABLES            61802        
d CONSTRAINTS          262890       
c ============================[ Problem Statistics ]=============================
c |                                                                             |
c |  Number of variables:         61802                                         |
c |  Number of clauses:          262890                                         |
c |  Parse time:                   0.04 s                                       |
c |                                                                             |
c ============================[ Search Statistics ]==============================
c | Conflicts |          ORIGINAL         |          LEARNT          | Progress |
c |           |    Vars  Clauses Literals |    Limit  Clauses Lit/Cl |          |
c ===============================================================================
c |       100 |   49206   227010   552772 |    83237      100     23 | 20.381 % |
c |       250 |   49206   227010   552772 |    91560      250     79 | 20.381 % |
c |       475 |   49206   227010   552772 |   100716      475     74 | 20.381 % |
c |       812 |   49206   227010   552772 |   110788      812     66 | 20.381 % |
c |      1318 |   49206   227010   552772 |   121867     1318     56 | 20.381 % |
c |      2077 |   49206   227010   552772 |   134054     2077     58 | 20.381 % |
c |      3216 |   49206   227010   552772 |   147459     3216     72 | 20.381 % |
c |      4924 |   49206   227010   552772 |   162205     4924     82 | 20.381 % |
c |      7486 |   49206   227010   552772 |   178425     7486    107 | 20.381 % |
c |     11330 |   49206   227010   552772 |   196268    11330    126 | 20.381 % |
c |     17096 |   49206   227010   552772 |   215895    17096    118 | 20.381 % |
c |     25745 |   49206   227010   552772 |   237484    25745    125 | 20.381 % |
c |     38719 |   49205   227000   552749 |   261233    38697    135 | 20.383 % |
c |     58180 |   49205   227000   552749 |   287356    58158    129 | 20.383 % |
c |     87372 |   49203   226980   552703 |   316092    87245    130 | 20.386 % |
c |    131161 |   49201   226960   552657 |   347701   130861    148 | 20.389 % |
c |    196845 |   49176   226835   552359 |   382471   193456    149 | 20.430 % |
c ===============================================================================
c restarts              : 511
c conflicts             : 206134         (2768 /sec)
c decisions             : 793901         (0.00 % random) (10661 /sec)
c propagations          : 265286254      (3562580 /sec)
c conflict literals     : 31498163       (20.40 % deleted)
d RESTARTS             511
d FAILURES             206134       
d NODES                793901       
d BACKTRACKS           793901       
d PROPAGATIONS         265286254    
d NOGOODSIZE           152.80 
d MEMORY               160.00 
d TIME                 74.4647 

s SATISFIABLE
